7

0   5   18   25   11   7   18
5   0   20   16   10   19   16
18   20   0   0   23   13   11
25   16   0   0   18   11   23
11   10   23   18   0   1   16
7   19   13   11   1   0   24
18   16   11   23   16   24   0

0   36   22   42   59   52   22
36   0   42   52   31   20   14
22   42   0   20   37   42   28
42   52   20   0   21   52   38
59   31   37   21   0   31   41
52   20   42   52   31   0   34
22   14   28   38   41   34   0